6659,431533;51365,000000;[8, 7, 6, 5, 4, 2, 3, 1, 0, 9, 13, 20, 28, 29, 31, 34, 36, 37, 32, 33, 35, 30, 26, 27, 23, 21, 24, 25, 22, 19, 14, 12, 15, 16, 17, 18, 10, 11, 8]
6662,347870;51434,000000;[8, 7, 6, 5, 4, 2, 3, 1, 0, 9, 13, 20, 28, 29, 31, 34, 36, 37, 32, 33, 35, 30, 26, 27, 23, 21, 25, 24, 22, 19, 14, 12, 15, 16, 17, 18, 10, 11, 8]
6659,431533;49763,000000;[15, 16, 17, 18, 10, 11, 8, 7, 6, 5, 4, 2, 3, 1, 0, 9, 13, 20, 28, 29, 31, 34, 36, 37, 32, 33, 35, 30, 26, 27, 23, 21, 24, 25, 22, 19, 14, 12, 15]
